c nombre: 58
c densidad: 0.7
p edges 30 289
e 1 2
e 1 4
e 1 5
e 1 8
e 1 9
e 1 10
e 1 12
e 1 15
e 1 16
e 1 18
e 1 19
e 1 20
e 1 21
e 1 23
e 1 25
e 1 26
e 1 27
e 1 28
e 1 30
e 2 3
e 2 7
e 2 8
e 2 11
e 2 12
e 2 14
e 2 15
e 2 16
e 2 17
e 2 18
e 2 19
e 2 20
e 2 21
e 2 22
e 2 24
e 2 25
e 2 27
e 3 4
e 3 5
e 3 6
e 3 7
e 3 8
e 3 9
e 3 10
e 3 11
e 3 12
e 3 13
e 3 14
e 3 16
e 3 17
e 3 18
e 3 19
e 3 22
e 3 23
e 3 24
e 3 25
e 3 27
e 3 29
e 3 30
e 4 5
e 4 7
e 4 9
e 4 11
e 4 12
e 4 13
e 4 14
e 4 17
e 4 18
e 4 19
e 4 20
e 4 21
e 4 22
e 4 24
e 4 25
e 4 28
e 4 29
e 4 30
e 5 6
e 5 7
e 5 8
e 5 9
e 5 11
e 5 12
e 5 15
e 5 16
e 5 18
e 5 20
e 5 21
e 5 23
e 5 24
e 5 28
e 5 30
e 6 8
e 6 9
e 6 10
e 6 12
e 6 13
e 6 14
e 6 15
e 6 17
e 6 19
e 6 20
e 6 21
e 6 22
e 6 24
e 6 25
e 6 27
e 6 28
e 6 29
e 6 30
e 7 9
e 7 10
e 7 14
e 7 15
e 7 16
e 7 19
e 7 20
e 7 21
e 7 22
e 7 26
e 7 29
e 7 30
e 8 9
e 8 12
e 8 13
e 8 14
e 8 17
e 8 18
e 8 19
e 8 21
e 8 23
e 8 25
e 8 26
e 8 27
e 8 29
e 9 10
e 9 11
e 9 12
e 9 13
e 9 14
e 9 15
e 9 16
e 9 17
e 9 20
e 9 22
e 9 24
e 9 25
e 9 26
e 9 27
e 9 28
e 9 29
e 9 30
e 10 12
e 10 15
e 10 17
e 10 19
e 10 20
e 10 21
e 10 22
e 10 24
e 10 25
e 10 26
e 10 27
e 10 29
e 10 30
e 11 12
e 11 13
e 11 14
e 11 16
e 11 17
e 11 18
e 11 22
e 11 24
e 11 25
e 11 26
e 11 27
e 11 28
e 11 30
e 12 13
e 12 14
e 12 15
e 12 17
e 12 19
e 12 20
e 12 21
e 12 22
e 12 23
e 12 24
e 12 25
e 12 26
e 12 28
e 12 30
e 13 16
e 13 18
e 13 19
e 13 20
e 13 21
e 13 26
e 13 27
e 13 28
e 13 30
e 14 15
e 14 16
e 14 17
e 14 22
e 14 23
e 14 24
e 14 25
e 14 27
e 14 29
e 14 30
e 15 16
e 15 17
e 15 19
e 15 20
e 15 21
e 15 22
e 15 23
e 15 24
e 15 25
e 15 27
e 15 28
e 15 29
e 15 30
e 16 17
e 16 20
e 16 22
e 16 23
e 16 24
e 16 25
e 16 28
e 16 29
e 17 19
e 17 20
e 17 21
e 17 22
e 17 25
e 17 26
e 17 27
e 17 28
e 17 29
e 17 30
e 18 21
e 18 22
e 18 23
e 18 24
e 18 26
e 18 27
e 18 28
e 19 20
e 19 23
e 19 25
e 19 26
e 19 27
e 19 29
e 19 30
e 20 21
e 20 22
e 20 26
e 20 27
e 20 29
e 21 22
e 21 23
e 21 24
e 21 26
e 21 28
e 21 29
e 22 23
e 22 24
e 22 25
e 22 28
e 22 29
e 22 30
e 23 25
e 23 26
e 23 27
e 23 28
e 23 30
e 24 25
e 24 27
e 24 28
e 24 29
e 25 26
e 25 28
e 25 29
e 25 30
e 26 27
e 26 28
e 27 28
e 29 30
